n_res = 4;
rc = [ 12, 12, 9, 9 ];
n_tasks = 30;
d = [ 8, 2, 1, 8, 10, 5, 4, 4, 5, 1, 9, 10, 4, 3, 1, 2, 10, 3, 8, 1, 3, 5, 7, 1, 6, 8, 8, 2, 2, 2 ];
rr = [| 4, 0, 0, 0, 0, 0, 2, 0, 3, 0, 4, 3, 3, 0, 0, 0, 0, 0, 10, 2, 6, 0, 0, 0, 6, 0, 0, 0, 2, 0
      | 0, 9, 0, 9, 10, 0, 0, 0, 0, 0, 0, 0, 0, 0, 0, 1, 9, 5, 0, 0, 0, 0, 8, 7, 0, 0, 0, 0, 0, 9
      | 0, 0, 0, 0, 0, 0, 0, 0, 0, 0, 0, 0, 0, 0, 0, 0, 0, 0, 0, 0, 0, 0, 0, 0, 0, 0, 0, 9, 0, 0
      | 0, 0, 5, 0, 0, 6, 0, 9, 0, 2, 0, 0, 0, 8, 2, 0, 0, 0, 0, 0, 0, 7, 0, 0, 0, 6, 4, 0, 0, 0 |];
suc = [ { 2 }, 
        { 1 }, 
        { 4 }, 
        { 3 }, 
        { 6 }, 
        { 5 }, 
        { 8 }, 
        { 7 }, 
        { 10 }, 
        { 9 }, 
        { 12 }, 
        { 11 }, 
        { 14 }, 
        { 13 }, 
        { 16 }, 
        { 15 }, 
        { 18 }, 
        { 17 }, 
        { 20 }, 
        { 19 }, 
        { 22 }, 
        { 21 }, 
        { 24 }, 
        { 23 }, 
        { 26 }, 
        { 25 }, 
        { 28 }, 
        { 27 }, 
        { 30 }, 
        { 29 }]; 
